#######################################
### Exact MIP solver for the HHCRSP ###
#######################################
-- Instance file: new-instances/HHCRSP_100_20_9_1.6_R_C.txt
-- Max threads: 4
-- Time limit: 999999 seconds
-- Use initial solution: No
Trivial flow violations prevented generating 47353 variables.
Model exported.
Version identifier: 20.1.0.0 | 2020-11-10 | 9bedb6d68
CPXPARAM_Threads                                 4
CPXPARAM_TimeLimit                               999999
Parallel mode: deterministic, using up to 4 threads for concurrent optimization:
 * Starting dual Simplex on 1 thread...
 * Starting Barrier on 3 threads...
Tried aggregator 1 time.
LP Presolve eliminated 5766 rows and 1434 columns.
Reduced LP has 56414 rows, 53728 columns, and 690475 nonzeros.
Presolve time = 0.29 sec. (175.40 ticks)
Symmetry aggregator did 65611 additional substitutions.

Iteration log . . .
Iteration:     1   Dual objective     =             0.000000
Iteration:   485   Dual objective     =           103.333333

Dual crossover.
  Dual:  Fixing 307 variables.
      306 DMoves:  Infeasibility  7.82152121e-14  Objective  1.05000000e+02
        0 DMoves:  Infeasibility  5.81479309e-14  Objective  1.05000000e+02
  Dual:  Pushed 10, exchanged 297.
  Primal:  Fixing 131 variables.
      130 PMoves:  Infeasibility  4.44089210e-16  Objective  1.05000000e+02
        0 PMoves:  Infeasibility  4.99600361e-16  Objective  1.05000000e+02
  Primal:  Pushed 79, exchanged 52.

Dual simplex solved model.


Solution status from MIP model:
-- Processing time: 0.521 sec.
-- Memory used: 121.672 MB
-- Best bound: inf
-- Obj value: 105
-- Gap: inf%
-- Total distance: 315
-- Total tardiness: 0
-- Largest tardiness: 0
